set E:= "E0","E1","E2","E3","E4","E5","E6","E7","E8","E9","E10","E11","E12","E13","E14","E15","E16","E17","E18","E19","E20","E21","E22","E23","E24","E25","E26","E27","E28","E29","E30","E31","E32","E33","E34","E35","E36","E37","E38","E39","E40","E41","E42","E43","E44","E45","E46","E47","E48","E49","E50","E51","E52","E53","E54","E55","E56","E57","E58","E59","E60","E61","E62","E63","E64","E65","E66","E67","E68","E69","E70","E71","E72","E73","E74","E75","E76","E77","E78","E79";

set D:= "D0","D1","D2","D3","D4","D5","D6","D7","D8","D9","D10","D11","D12","D13","D14","D15","D16","D17","D18","D19","D20","D21","D22","D23","D24","D25","D26","D27","D28","D29","D30","D31","D32","D33","D34","D35","D36","D37","D38","D39";

set T:= "L","Ma","Mi","J","V";

set G:= "G0","G1","G2","G3","G4","G5","G6","G7","G8","G9","G10","G11";

set Z:= "Z0","Z1","Z2","Z3","Z4","Z5","Z6","Z7","Z8","Z9";

param EscZona: Z0 Z1 Z2 Z3 Z4 Z5 Z6 Z7 Z8 Z9 := 
       D0  1  0  0  0  0  0  0  0  0  0
       D1  1  0  0  0  0  0  0  0  0  0
       D2  1  0  0  0  0  0  0  0  0  0
       D3  1  0  0  0  0  0  0  0  0  0
       D4  0  1  0  0  0  0  0  0  0  0
       D5  0  1  0  0  0  0  0  0  0  0
       D6  0  1  0  0  0  0  0  0  0  0
       D7  0  1  0  0  0  0  0  0  0  0
       D8  0  0  1  0  0  0  0  0  0  0
       D9  0  0  1  0  0  0  0  0  0  0
       D10  0  0  1  0  0  0  0  0  0  0
       D11  0  0  1  0  0  0  0  0  0  0
       D12  0  0  0  1  0  0  0  0  0  0
       D13  0  0  0  1  0  0  0  0  0  0
       D14  0  0  0  1  0  0  0  0  0  0
       D15  0  0  0  1  0  0  0  0  0  0
       D16  0  0  0  0  1  0  0  0  0  0
       D17  0  0  0  0  1  0  0  0  0  0
       D18  0  0  0  0  1  0  0  0  0  0
       D19  0  0  0  0  1  0  0  0  0  0
       D20  0  0  0  0  0  1  0  0  0  0
       D21  0  0  0  0  0  1  0  0  0  0
       D22  0  0  0  0  0  1  0  0  0  0
       D23  0  0  0  0  0  1  0  0  0  0
       D24  0  0  0  0  0  0  1  0  0  0
       D25  0  0  0  0  0  0  1  0  0  0
       D26  0  0  0  0  0  0  1  0  0  0
       D27  0  0  0  0  0  0  1  0  0  0
       D28  0  0  0  0  0  0  0  1  0  0
       D29  0  0  0  0  0  0  0  1  0  0
       D30  0  0  0  0  0  0  0  1  0  0
       D31  0  0  0  0  0  0  0  1  0  0
       D32  0  0  0  0  0  0  0  0  1  0
       D33  0  0  0  0  0  0  0  0  1  0
       D34  0  0  0  0  0  0  0  0  1  0
       D35  0  0  0  0  0  0  0  0  1  0
       D36  0  0  0  0  0  0  0  0  0  1
       D37  0  0  0  0  0  0  0  0  0  1
       D38  0  0  0  0  0  0  0  0  0  1
       D39  0  0  0  0  0  0  0  0  0  1
;

param DispEsc: D0 D1 D2 D3 D4 D5 D6 D7 D8 D9 D10 D11 D12 D13 D14 D15 D16 D17 D18 D19 D20 D21 D22 D23 D24 D25 D26 D27 D28 D29 D30 D31 D32 D33 D34 D35 D36 D37 D38 D39 := 
       E0  0  0  1  0  0  0  1  0  0  0  1  1  0  0  1  0  1  0  0  0  0  0  0  1  1  1  1  0  1  0  0  1  1  0  0  1  0  1  0  0
       E1  1  0  1  1  0  0  1  0  0  1  1  0  1  0  1  0  1  1  0  1  0  1  1  0  1  0  0  0  1  1  0  1  1  1  1  0  1  0  1  0
       E2  1  1  1  1  1  0  1  0  1  1  1  1  1  1  0  0  1  0  1  1  1  1  1  1  0  1  1  1  1  1  1  1  1  1  1  1  1  1  0  1
       E3  1  1  1  1  1  1  1  1  1  1  1  1  1  1  1  1  1  1  1  1  1  1  1  1  1  1  1  1  1  1  1  1  1  1  1  1  1  1  1  0
       E4  1  0  1  1  1  1  1  1  1  1  1  1  1  1  1  1  0  0  1  1  1  1  1  1  0  1  1  1  1  1  0  0  0  1  1  0  1  1  0  0
       E5  1  0  1  1  0  1  0  0  1  0  0  1  0  1  0  0  1  0  0  1  1  1  0  1  1  1  1  0  1  0  1  1  1  1  1  0  1  0  0  0
       E6  1  0  0  0  1  0  1  1  1  1  0  1  0  1  0  1  0  1  1  0  1  0  0  0  0  0  1  0  0  0  1  1  1  1  1  1  1  0  0  0
       E7  0  1  1  1  1  1  1  1  1  1  0  0  0  1  0  0  1  1  0  1  0  1  0  0  0  0  0  1  1  1  0  1  0  0  0  1  0  1  0  0
       E8  0  1  0  1  0  0  1  1  0  0  1  1  0  0  0  0  1  0  0  0  0  1  0  0  1  1  0  0  0  1  0  0  0  1  1  1  0  0  0  1
       E9  1  0  0  0  1  1  0  1  1  1  0  1  1  1  1  0  1  1  1  1  1  1  1  0  1  0  1  0  1  0  0  1  0  1  1  1  1  0  1  0
       E10  1  1  1  1  1  1  1  0  1  0  1  1  0  1  1  1  1  1  1  1  1  0  1  1  1  1  1  1  0  0  0  1  1  1  0  1  1  0  1  1
       E11  1  0  0  0  0  0  1  0  0  0  1  0  0  0  1  1  1  1  0  0  0  0  0  1  0  0  0  1  1  0  0  1  1  0  0  0  1  0  0  0
       E12  0  1  0  1  1  1  0  1  1  0  1  0  1  1  0  1  0  0  0  1  1  1  1  0  1  0  0  1  1  1  0  0  1  1  1  1  1  1  0  1
       E13  1  1  1  1  1  1  1  1  1  1  1  1  1  1  1  1  1  1  1  1  0  1  1  1  1  1  1  1  1  1  1  1  1  1  1  1  0  1  1  1
       E14  0  0  0  0  1  1  0  0  1  0  0  0  1  0  1  0  1  0  0  1  1  1  1  0  0  0  1  1  0  0  1  0  0  1  0  1  1  1  0  0
       E15  1  1  1  0  1  1  1  1  0  1  0  1  1  1  1  1  1  1  1  1  0  1  1  1  0  0  1  1  1  0  1  0  1  1  1  1  1  1  1  1
       E16  1  1  1  1  1  0  1  1  1  0  1  1  1  1  1  1  1  1  1  1  1  1  1  1  1  1  1  1  1  1  1  1  1  0  0  0  1  1  1  1
       E17  1  1  1  1  1  1  0  1  1  0  1  0  1  1  1  1  0  1  1  1  1  1  1  1  1  1  1  1  1  1  1  1  0  1  1  1  1  1  1  1
       E18  0  1  1  1  1  1  0  1  1  1  1  0  1  1  0  1  1  1  0  1  0  1  1  1  1  0  1  1  1  1  1  1  1  0  1  1  1  1  1  0
       E19  1  1  1  1  1  1  1  0  1  1  1  1  1  1  1  1  0  0  1  1  1  1  0  1  1  0  1  0  1  0  1  1  0  1  1  0  1  1  1  1
       E20  1  0  0  0  0  0  0  0  0  0  0  0  0  1  1  0  0  0  0  0  0  0  1  0  1  0  1  0  0  0  1  0  0  1  1  1  1  1  0  1
       E21  1  1  0  0  0  1  0  0  0  1  1  0  0  0  1  0  1  0  0  0  1  1  0  0  0  0  0  0  0  0  1  1  1  0  0  1  1  0  0  0
       E22  1  1  1  1  1  1  1  1  1  1  1  1  1  1  1  0  1  1  1  1  1  1  1  1  1  0  0  1  1  1  1  1  1  1  1  1  1  1  1  0
       E23  0  0  0  1  1  1  0  0  1  0  0  1  0  0  0  1  0  0  0  1  1  0  1  1  0  1  0  0  0  0  0  1  1  0  1  1  0  1  1  0
       E24  1  1  1  1  0  0  0  1  1  1  1  1  1  0  1  1  1  1  1  0  0  1  1  0  1  0  1  1  0  1  1  1  1  1  1  0  1  0  0  0
       E25  0  1  0  0  1  1  1  0  1  1  0  1  0  0  1  1  1  1  1  1  1  1  1  0  0  1  0  0  1  1  1  0  1  1  1  1  1  1  0  1
       E26  1  1  1  1  1  1  1  1  1  1  1  1  1  1  1  1  1  1  1  1  1  1  1  0  1  1  1  1  1  1  1  1  0  1  0  1  1  1  1  1
       E27  1  1  1  0  1  1  0  0  1  1  1  0  0  0  1  1  0  1  1  0  1  1  1  1  1  1  0  1  0  0  1  1  1  1  0  0  0  1  1  1
       E28  1  1  1  1  0  1  0  1  1  1  0  1  0  1  0  1  1  0  0  0  0  1  1  1  1  1  1  1  1  1  1  1  1  1  0  1  1  0  1  1
       E29  1  1  1  0  0  0  0  1  1  0  0  0  0  0  0  0  0  1  1  0  1  0  0  0  0  0  0  0  1  0  1  1  0  0  0  1  0  0  1  0
       E30  1  0  0  0  0  0  1  1  0  1  0  0  1  0  1  0  1  0  1  1  0  1  0  1  1  1  0  0  1  0  0  1  1  1  1  0  0  0  0  0
       E31  0  0  0  1  1  1  1  0  0  0  0  0  1  1  0  1  0  1  1  1  0  0  0  0  1  0  0  0  0  0  0  1  0  1  0  0  0  1  0  1
       E32  1  1  1  1  1  1  1  0  1  1  1  1  1  1  1  1  1  1  0  1  1  0  1  1  0  0  1  1  0  1  1  0  1  0  1  1  1  0  1  1
       E33  1  0  1  0  1  1  1  1  1  0  1  1  0  0  1  0  1  1  1  1  1  1  1  1  0  0  1  1  1  1  1  1  1  0  1  1  1  1  0  1
       E34  1  1  1  1  1  1  1  1  1  1  0  1  0  1  0  1  0  0  1  0  1  0  0  1  1  1  1  1  1  1  1  1  1  1  1  1  0  1  1  0
       E35  1  0  0  1  0  1  1  0  1  0  0  0  0  1  0  0  1  1  1  1  0  0  1  1  1  1  0  1  1  0  1  1  0  0  1  0  1  0  0  0
       E36  1  1  1  1  1  1  1  0  0  0  0  1  0  1  1  1  1  1  1  0  1  1  1  0  1  1  0  1  1  1  1  0  0  1  0  1  1  1  1  0
       E37  1  1  0  1  1  1  1  1  1  0  1  1  1  0  1  1  0  1  1  1  1  1  1  1  0  1  0  0  1  1  1  1  1  1  1  1  1  1  1  1
       E38  1  0  1  1  0  0  1  0  1  1  1  1  1  1  1  0  0  1  0  0  1  1  0  1  0  0  0  1  0  0  0  0  0  1  1  1  1  1  0  0
       E39  1  1  1  0  1  1  0  1  1  1  1  0  1  0  0  0  1  1  1  0  0  1  1  1  1  1  0  1  1  1  1  1  0  0  1  0  1  1  1  0
       E40  1  1  1  1  1  1  1  1  1  1  1  1  0  1  1  1  1  1  1  1  1  1  1  1  1  1  1  1  1  0  1  1  1  0  1  0  1  1  0  0
       E41  1  1  0  1  1  1  1  0  1  1  1  0  0  1  1  1  1  0  1  1  1  1  0  1  1  1  1  0  0  1  1  1  1  1  1  1  1  1  1  1
       E42  1  0  1  0  1  1  1  0  0  1  1  0  0  0  1  0  1  0  0  0  0  1  0  1  0  1  0  1  1  1  1  1  0  1  1  1  1  1  0  1
       E43  1  1  1  1  1  1  1  1  1  1  1  1  1  1  1  1  1  1  1  1  1  1  1  1  0  1  1  1  1  1  1  1  1  1  1  1  0  1  1  1
       E44  1  1  1  1  1  1  1  1  1  1  1  1  1  1  1  0  1  1  1  0  1  1  1  1  1  1  1  1  1  1  1  1  0  1  1  1  1  1  1  1
       E45  0  1  0  0  0  1  0  0  0  0  0  0  0  0  1  0  0  0  0  1  0  0  1  1  0  0  0  0  1  0  1  1  0  1  1  0  1  1  1  1
       E46  0  0  0  0  0  0  1  1  0  0  0  1  0  0  1  1  0  1  0  0  1  1  0  1  0  0  1  0  0  0  0  1  0  0  1  1  0  0  0  0
       E47  0  1  1  1  1  1  1  1  1  0  1  0  0  1  1  0  0  1  1  1  1  0  1  1  1  1  1  1  1  0  1  0  1  1  1  1  1  1  1  1
       E48  1  0  1  1  1  0  1  1  1  1  1  1  1  1  1  0  1  1  1  1  1  1  1  1  1  1  1  0  1  1  1  1  1  1  1  1  1  1  0  1
       E49  1  0  0  0  1  0  0  1  1  0  1  1  0  1  1  0  0  1  1  1  0  0  0  0  0  1  1  0  1  1  0  1  0  0  1  1  0  1  1  1
       E50  0  1  1  0  0  1  1  1  1  0  0  1  0  0  1  0  0  0  1  0  1  1  0  1  1  0  1  0  1  1  1  0  0  0  0  0  1  0  0  0
       E51  0  0  0  0  0  0  1  0  0  0  0  1  0  0  1  1  0  0  0  0  0  0  1  1  0  1  1  0  1  1  1  0  0  0  0  1  0  1  0  0
       E52  1  1  1  1  1  1  1  0  1  1  1  1  0  1  0  1  1  1  1  1  1  1  1  1  1  1  1  1  1  1  1  1  1  1  1  1  1  1  1  1
       E53  1  1  0  1  0  1  1  1  1  0  1  0  0  1  1  1  1  1  0  1  1  0  1  1  1  1  1  1  1  1  1  1  0  1  0  1  1  0  1  0
       E54  1  1  0  1  0  0  1  1  1  1  0  0  0  0  0  0  0  0  0  0  0  0  0  0  1  0  0  0  0  1  1  0  1  0  1  1  0  1  0  0
       E55  1  1  0  1  1  1  1  1  1  0  1  1  1  1  0  0  1  1  1  1  1  1  1  1  1  1  1  1  0  1  1  1  1  1  1  1  1  1  0  1
       E56  0  0  0  0  0  0  0  0  1  1  1  0  0  1  0  0  0  0  1  1  0  1  1  1  0  0  0  1  0  1  0  1  0  1  0  0  0  1  1  0
       E57  1  0  0  1  0  0  0  0  1  1  1  1  1  0  0  0  0  0  0  1  1  0  1  1  1  1  0  1  1  1  0  1  0  1  1  0  0  0  0  0
       E58  1  1  0  1  1  1  1  1  0  1  1  1  1  1  1  1  1  1  1  1  1  1  1  1  1  0  0  1  1  1  1  1  1  1  1  1  1  1  1  1
       E59  0  1  1  0  1  1  0  0  0  1  1  0  0  1  0  1  0  0  0  1  1  1  0  0  1  0  0  1  1  1  1  1  0  1  1  1  1  0  0  0
       E60  1  1  1  0  1  1  1  1  1  1  1  1  1  1  1  1  1  1  1  1  1  1  0  0  1  1  0  1  1  1  1  1  1  1  1  1  1  1  1  1
       E61  1  1  1  1  1  1  1  1  1  1  1  1  1  1  1  1  1  1  1  0  0  1  1  1  1  1  1  0  1  1  1  1  1  1  1  1  1  1  1  0
       E62  1  1  1  1  1  1  1  1  1  0  1  1  1  1  1  1  0  0  1  1  0  1  1  1  0  0  0  1  1  1  0  1  0  1  1  0  0  1  0  0
       E63  1  1  0  0  0  0  0  0  0  0  0  0  0  0  0  0  0  0  1  0  0  0  0  0  1  1  1  0  1  1  1  0  0  1  1  0  1  0  0  0
       E64  0  1  0  1  0  1  0  1  1  1  0  0  1  0  0  1  0  1  1  1  1  1  1  1  1  1  1  1  1  1  1  1  1  1  1  1  0  1  1  0
       E65  1  1  1  1  1  1  0  1  0  1  0  1  1  0  1  1  1  1  1  1  1  1  1  1  1  1  1  1  0  1  1  1  0  1  0  1  1  0  0  1
       E66  1  1  1  1  1  1  1  0  1  1  1  0  1  1  1  1  1  1  1  1  0  1  1  1  1  0  0  1  1  0  0  1  0  0  1  1  1  1  1  1
       E67  1  1  1  1  1  1  1  1  1  1  1  1  1  1  1  1  1  1  1  1  1  1  1  0  1  1  1  1  1  1  1  1  1  1  1  1  1  1  1  1
       E68  0  1  1  1  1  1  1  1  1  1  1  1  1  1  1  1  0  1  1  1  1  1  1  0  1  0  0  1  1  1  1  1  1  0  1  1  1  1  1  1
       E69  1  0  1  1  1  1  1  1  1  0  1  1  1  1  1  1  0  1  1  1  1  1  0  0  1  1  1  1  1  1  1  1  1  1  1  1  1  1  1  1
       E70  1  1  1  1  1  1  1  1  1  1  1  1  1  0  1  1  1  1  1  1  1  0  1  1  1  1  0  1  1  1  1  1  0  1  1  1  1  1  1  0
       E71  0  1  0  0  1  1  0  0  1  1  1  1  0  0  0  1  1  1  1  0  0  1  1  1  1  0  0  1  1  1  1  1  0  1  1  1  0  1  1  0
       E72  1  1  1  1  1  1  0  1  1  0  0  1  1  0  1  0  1  0  1  1  1  1  1  1  0  1  1  1  0  1  1  1  1  1  1  0  1  1  1  0
       E73  1  0  0  0  1  1  0  1  1  1  1  0  0  0  1  0  1  1  1  1  1  1  1  1  1  1  1  1  1  1  1  1  1  1  1  1  1  1  1  1
       E74  1  1  1  1  1  1  0  1  1  1  1  1  1  1  1  1  1  1  0  1  1  1  1  1  1  1  1  1  1  1  1  1  1  1  1  1  1  1  1  1
       E75  1  1  1  0  1  1  1  1  1  1  1  1  1  0  1  1  1  1  1  1  1  1  1  1  0  1  1  1  1  1  1  1  1  1  1  1  1  0  1  0
       E76  0  1  1  1  0  0  0  1  0  0  1  0  0  0  0  0  0  0  0  0  0  0  0  1  1  1  1  0  1  0  0  0  0  1  0  1  0  1  0  0
       E77  0  0  1  1  1  0  1  0  1  1  0  1  0  0  1  1  1  0  0  1  1  0  0  1  0  0  1  0  1  1  1  0  1  0  0  1  0  1  0  0
       E78  1  1  1  1  1  1  1  1  1  1  1  1  1  1  1  1  1  0  1  1  1  1  1  1  1  1  1  1  1  1  1  1  1  1  1  1  1  1  1  1
       E79  0  1  1  0  1  1  0  0  1  1  1  0  0  0  0  0  0  0  1  0  1  1  0  0  0  0  0  0  0  1  0  1  0  0  0  0  0  0  0  0
;

param EmpGrupo: G0 G1 G2 G3 G4 G5 G6 G7 G8 G9 G10 G11 := 
       E0  1  0  0  0  0  0  0  0  0  0  0  0
       E1  1  0  0  0  0  0  0  0  0  0  0  0
       E2  1  0  0  0  0  0  0  0  0  0  0  0
       E3  1  0  0  0  0  0  0  0  0  0  0  0
       E4  1  0  0  0  0  0  0  0  0  0  0  0
       E5  1  0  0  0  0  0  0  0  0  0  0  0
       E6  1  0  0  0  0  0  0  0  0  0  0  0
       E7  0  1  0  0  0  0  0  0  0  0  0  0
       E8  0  1  0  0  0  0  0  0  0  0  0  0
       E9  0  1  0  0  0  0  0  0  0  0  0  0
       E10  0  1  0  0  0  0  0  0  0  0  0  0
       E11  0  1  0  0  0  0  0  0  0  0  0  0
       E12  0  1  0  0  0  0  0  0  0  0  0  0
       E13  0  1  0  0  0  0  0  0  0  0  0  0
       E14  0  0  1  0  0  0  0  0  0  0  0  0
       E15  0  0  1  0  0  0  0  0  0  0  0  0
       E16  0  0  1  0  0  0  0  0  0  0  0  0
       E17  0  0  1  0  0  0  0  0  0  0  0  0
       E18  0  0  1  0  0  0  0  0  0  0  0  0
       E19  0  0  1  0  0  0  0  0  0  0  0  0
       E20  0  0  1  0  0  0  0  0  0  0  0  0
       E21  0  0  0  1  0  0  0  0  0  0  0  0
       E22  0  0  0  1  0  0  0  0  0  0  0  0
       E23  0  0  0  1  0  0  0  0  0  0  0  0
       E24  0  0  0  1  0  0  0  0  0  0  0  0
       E25  0  0  0  1  0  0  0  0  0  0  0  0
       E26  0  0  0  1  0  0  0  0  0  0  0  0
       E27  0  0  0  1  0  0  0  0  0  0  0  0
       E28  0  0  0  0  1  0  0  0  0  0  0  0
       E29  0  0  0  0  1  0  0  0  0  0  0  0
       E30  0  0  0  0  1  0  0  0  0  0  0  0
       E31  0  0  0  0  1  0  0  0  0  0  0  0
       E32  0  0  0  0  1  0  0  0  0  0  0  0
       E33  0  0  0  0  1  0  0  0  0  0  0  0
       E34  0  0  0  0  1  0  0  0  0  0  0  0
       E35  0  0  0  0  0  1  0  0  0  0  0  0
       E36  0  0  0  0  0  1  0  0  0  0  0  0
       E37  0  0  0  0  0  1  0  0  0  0  0  0
       E38  0  0  0  0  0  1  0  0  0  0  0  0
       E39  0  0  0  0  0  1  0  0  0  0  0  0
       E40  0  0  0  0  0  1  0  0  0  0  0  0
       E41  0  0  0  0  0  1  0  0  0  0  0  0
       E42  0  0  0  0  0  0  1  0  0  0  0  0
       E43  0  0  0  0  0  0  1  0  0  0  0  0
       E44  0  0  0  0  0  0  1  0  0  0  0  0
       E45  0  0  0  0  0  0  1  0  0  0  0  0
       E46  0  0  0  0  0  0  1  0  0  0  0  0
       E47  0  0  0  0  0  0  1  0  0  0  0  0
       E48  0  0  0  0  0  0  1  0  0  0  0  0
       E49  0  0  0  0  0  0  0  1  0  0  0  0
       E50  0  0  0  0  0  0  0  1  0  0  0  0
       E51  0  0  0  0  0  0  0  1  0  0  0  0
       E52  0  0  0  0  0  0  0  1  0  0  0  0
       E53  0  0  0  0  0  0  0  1  0  0  0  0
       E54  0  0  0  0  0  0  0  1  0  0  0  0
       E55  0  0  0  0  0  0  0  1  0  0  0  0
       E56  0  0  0  0  0  0  0  0  1  0  0  0
       E57  0  0  0  0  0  0  0  0  1  0  0  0
       E58  0  0  0  0  0  0  0  0  1  0  0  0
       E59  0  0  0  0  0  0  0  0  1  0  0  0
       E60  0  0  0  0  0  0  0  0  1  0  0  0
       E61  0  0  0  0  0  0  0  0  1  0  0  0
       E62  0  0  0  0  0  0  0  0  0  1  0  0
       E63  0  0  0  0  0  0  0  0  0  1  0  0
       E64  0  0  0  0  0  0  0  0  0  1  0  0
       E65  0  0  0  0  0  0  0  0  0  1  0  0
       E66  0  0  0  0  0  0  0  0  0  1  0  0
       E67  0  0  0  0  0  0  0  0  0  1  0  0
       E68  0  0  0  0  0  0  0  0  0  0  1  0
       E69  0  0  0  0  0  0  0  0  0  0  1  0
       E70  0  0  0  0  0  0  0  0  0  0  1  0
       E71  0  0  0  0  0  0  0  0  0  0  1  0
       E72  0  0  0  0  0  0  0  0  0  0  1  0
       E73  0  0  0  0  0  0  0  0  0  0  1  0
       E74  0  0  0  0  0  0  0  0  0  0  0  1
       E75  0  0  0  0  0  0  0  0  0  0  0  1
       E76  0  0  0  0  0  0  0  0  0  0  0  1
       E77  0  0  0  0  0  0  0  0  0  0  0  1
       E78  0  0  0  0  0  0  0  0  0  0  0  1
       E79  0  0  0  0  0  0  0  0  0  0  0  1
;

param Preferencia: L Ma Mi J V := 
       E0  1  0  0  0  1
       E1  1  1  0  0  0
       E2  0  1  1  1  0
       E3  1  0  0  1  1
       E4  0  1  0  0  0
       E5  0  0  1  1  0
       E6  1  0  0  0  1
       E7  0  1  1  1  1
       E8  0  0  1  1  0
       E9  1  1  0  0  0
       E10  0  0  0  1  1
       E11  0  0  0  1  1
       E12  0  0  1  1  0
       E13  0  0  1  1  0
       E14  0  0  1  0  1
       E15  1  1  0  0  0
       E16  0  1  0  0  0
       E17  0  1  1  0  1
       E18  1  0  0  0  0
       E19  1  0  1  0  0
       E20  1  1  0  0  0
       E21  0  0  0  1  0
       E22  0  1  1  1  0
       E23  1  1  1  1  0
       E24  0  1  0  0  1
       E25  0  1  1  0  0
       E26  1  0  0  1  0
       E27  0  1  0  0  1
       E28  1  1  0  1  1
       E29  1  0  1  0  0
       E30  0  0  0  1  1
       E31  0  1  0  0  1
       E32  0  0  1  1  0
       E33  1  0  0  1  1
       E34  1  1  1  1  0
       E35  1  1  0  0  0
       E36  0  1  0  1  0
       E37  0  1  0  0  1
       E38  0  0  0  1  1
       E39  0  1  1  0  0
       E40  0  1  0  1  1
       E41  0  1  1  0  1
       E42  1  1  1  1  1
       E43  1  0  0  0  1
       E44  1  0  0  1  0
       E45  1  0  0  1  0
       E46  0  0  1  0  0
       E47  1  1  0  0  1
       E48  0  0  0  1  0
       E49  1  0  1  1  0
       E50  0  0  0  0  1
       E51  0  1  0  1  0
       E52  0  0  1  0  1
       E53  0  0  1  1  0
       E54  1  1  1  0  1
       E55  1  0  1  0  1
       E56  1  1  1  0  1
       E57  0  1  1  0  0
       E58  0  1  0  0  1
       E59  1  0  0  1  0
       E60  1  1  0  0  0
       E61  0  0  1  0  1
       E62  0  1  0  0  1
       E63  0  1  0  1  0
       E64  1  1  0  0  1
       E65  0  0  1  0  1
       E66  1  1  1  0  1
       E67  0  1  1  1  1
       E68  0  0  0  0  1
       E69  0  1  0  1  0
       E70  1  1  0  1  0
       E71  1  1  0  0  0
       E72  0  1  0  0  1
       E73  0  1  0  1  0
       E74  0  0  1  1  0
       E75  0  1  1  1  0
       E76  0  0  0  1  1
       E77  1  1  1  1  0
       E78  0  0  1  1  1
       E79  0  1  0  1  0
;

param Boni := 5; 
param zonas_maximas_grupo := 2;